p cnf 225 1
225 0
w 1 0.214085
w 2 1 1
w 2 -1 0
w 3 2 1
w 3 -2 0
w 4 3 1
w 4 -3 0
w 5 4 0
w 5 -4 1
w 6 5 1
w 6 -5 0
w 7 6 0
w 7 -6 1
w 8 7 0
w 8 -7 1
w 9 8 0.918616
w 9 -8 0.920691
w 10 9 1
w 10 -9 0
w 11 10 1
w 11 -10 0
w 12 11 0
w 12 -11 1
w 13 12 1
w 13 -12 0
w 14 13 0.871752
w 14 -13 0.524195
w 15 14 0
w 15 -14 1
w 16 1 0
w 16 -1 1
w 17 16 2 1
w 17 16 -2 0
w 17 -16 2 0
w 17 -16 -2 0
w 18 17 3 0
w 18 17 -3 0
w 18 -17 3 1
w 18 -17 -3 0
w 19 18 4 0.853232
w 19 18 -4 0.00681689
w 19 -18 4 0.810516
w 19 -18 -4 0.773923
w 20 19 5 0
w 20 19 -5 0
w 20 -19 5 1
w 20 -19 -5 0
w 21 20 6 0
w 21 20 -6 1
w 21 -20 6 1
w 21 -20 -6 0
w 22 21 7 0
w 22 21 -7 0
w 22 -21 7 0
w 22 -21 -7 1
w 23 22 8 0
w 23 22 -8 0
w 23 -22 8 1
w 23 -22 -8 1
w 24 23 9 1
w 24 23 -9 0
w 24 -23 9 1
w 24 -23 -9 1
w 25 24 10 0
w 25 24 -10 1
w 25 -24 10 1
w 25 -24 -10 1
w 26 25 11 1
w 26 25 -11 1
w 26 -25 11 1
w 26 -25 -11 0
w 27 26 12 0
w 27 26 -12 0
w 27 -26 12 0
w 27 -26 -12 1
w 28 27 13 0
w 28 27 -13 1
w 28 -27 13 1
w 28 -27 -13 1
w 29 28 14 1
w 29 28 -14 1
w 29 -28 14 0
w 29 -28 -14 1
w 30 29 15 1
w 30 29 -15 1
w 30 -29 15 1
w 30 -29 -15 0
w 31 16 0
w 31 -16 1
w 32 31 17 0
w 32 31 -17 0
w 32 -31 17 0
w 32 -31 -17 1
w 33 32 18 0.548654
w 33 32 -18 0.372388
w 33 -32 18 0.0853925
w 33 -32 -18 0.0609532
w 34 33 19 0
w 34 33 -19 0
w 34 -33 19 1
w 34 -33 -19 0
w 35 34 20 0.523835
w 35 34 -20 0.398225
w 35 -34 20 0.329427
w 35 -34 -20 0.486132
w 36 35 21 0
w 36 35 -21 0
w 36 -35 21 1
w 36 -35 -21 1
w 37 36 22 0
w 37 36 -22 0
w 37 -36 22 1
w 37 -36 -22 1
w 38 37 23 0
w 38 37 -23 1
w 38 -37 23 1
w 38 -37 -23 0
w 39 38 24 1
w 39 38 -24 0
w 39 -38 24 0
w 39 -38 -24 1
w 40 39 25 0.478693
w 40 39 -25 0.447666
w 40 -39 25 0.788129
w 40 -39 -25 0.571179
w 41 40 26 0
w 41 40 -26 1
w 41 -40 26 1
w 41 -40 -26 0
w 42 41 27 0
w 42 41 -27 0
w 42 -41 27 1
w 42 -41 -27 1
w 43 42 28 1
w 43 42 -28 1
w 43 -42 28 0
w 43 -42 -28 0
w 44 43 29 1
w 44 43 -29 0
w 44 -43 29 1
w 44 -43 -29 1
w 45 44 30 1
w 45 44 -30 0
w 45 -44 30 1
w 45 -44 -30 1
w 46 31 0
w 46 -31 1
w 47 46 32 1
w 47 46 -32 1
w 47 -46 32 1
w 47 -46 -32 0
w 48 47 33 0
w 48 47 -33 0
w 48 -47 33 1
w 48 -47 -33 0
w 49 48 34 1
w 49 48 -34 1
w 49 -48 34 0
w 49 -48 -34 0
w 50 49 35 1
w 50 49 -35 0
w 50 -49 35 0
w 50 -49 -35 0
w 51 50 36 1
w 51 50 -36 1
w 51 -50 36 0
w 51 -50 -36 0
w 52 51 37 0.371317
w 52 51 -37 0.199997
w 52 -51 37 0.183006
w 52 -51 -37 0.550722
w 53 52 38 1
w 53 52 -38 0
w 53 -52 38 1
w 53 -52 -38 0
w 54 53 39 0
w 54 53 -39 0
w 54 -53 39 0
w 54 -53 -39 1
w 55 54 40 0
w 55 54 -40 0
w 55 -54 40 1
w 55 -54 -40 1
w 56 55 41 1
w 56 55 -41 0
w 56 -55 41 0
w 56 -55 -41 1
w 57 56 42 0
w 57 56 -42 0
w 57 -56 42 0
w 57 -56 -42 1
w 58 57 43 0
w 58 57 -43 0
w 58 -57 43 1
w 58 -57 -43 0
w 59 58 44 0.921831
w 59 58 -44 0.0725296
w 59 -58 44 0.448383
w 59 -58 -44 0.631506
w 60 59 45 0
w 60 59 -45 1
w 60 -59 45 0
w 60 -59 -45 0
w 61 46 1
w 61 -46 0
w 62 61 47 1
w 62 61 -47 0
w 62 -61 47 0
w 62 -61 -47 0
w 63 62 48 0.318016
w 63 62 -48 0.977664
w 63 -62 48 0.593472
w 63 -62 -48 0.589732
w 64 63 49 0.436619
w 64 63 -49 0.665579
w 64 -63 49 0.929461
w 64 -63 -49 0.489208
w 65 64 50 0
w 65 64 -50 0
w 65 -64 50 1
w 65 -64 -50 0
w 66 65 51 1
w 66 65 -51 1
w 66 -65 51 0
w 66 -65 -51 1
w 67 66 52 0.16563
w 67 66 -52 0.534389
w 67 -66 52 0.810081
w 67 -66 -52 0.170118
w 68 67 53 0.374637
w 68 67 -53 0.0464223
w 68 -67 53 0.250163
w 68 -67 -53 0.977549
w 69 68 54 0.56818
w 69 68 -54 0.955213
w 69 -68 54 0.544186
w 69 -68 -54 0.157912
w 70 69 55 0.980806
w 70 69 -55 0.82349
w 70 -69 55 0.806046
w 70 -69 -55 0.470014
w 71 70 56 1
w 71 70 -56 0
w 71 -70 56 1
w 71 -70 -56 0
w 72 71 57 0.453595
w 72 71 -57 0.0412802
w 72 -71 57 0.170561
w 72 -71 -57 0.123564
w 73 72 58 0
w 73 72 -58 1
w 73 -72 58 0
w 73 -72 -58 0
w 74 73 59 1
w 74 73 -59 0
w 74 -73 59 1
w 74 -73 -59 0
w 75 74 60 1
w 75 74 -60 1
w 75 -74 60 1
w 75 -74 -60 0
w 76 61 0.936378
w 76 -61 0.981441
w 77 76 62 1
w 77 76 -62 0
w 77 -76 62 1
w 77 -76 -62 1
w 78 77 63 0
w 78 77 -63 1
w 78 -77 63 0
w 78 -77 -63 1
w 79 78 64 1
w 79 78 -64 0
w 79 -78 64 0
w 79 -78 -64 0
w 80 79 65 1
w 80 79 -65 0
w 80 -79 65 1
w 80 -79 -65 0
w 81 80 66 0
w 81 80 -66 1
w 81 -80 66 0
w 81 -80 -66 1
w 82 81 67 0.695364
w 82 81 -67 0.0904245
w 82 -81 67 0.714146
w 82 -81 -67 0.631742
w 83 82 68 0
w 83 82 -68 1
w 83 -82 68 1
w 83 -82 -68 0
w 84 83 69 1
w 84 83 -69 0
w 84 -83 69 1
w 84 -83 -69 1
w 85 84 70 1
w 85 84 -70 1
w 85 -84 70 0
w 85 -84 -70 0
w 86 85 71 0
w 86 85 -71 1
w 86 -85 71 1
w 86 -85 -71 1
w 87 86 72 0.0210431
w 87 86 -72 0.146725
w 87 -86 72 0.131593
w 87 -86 -72 0.656615
w 88 87 73 1
w 88 87 -73 1
w 88 -87 73 0
w 88 -87 -73 0
w 89 88 74 0.398804
w 89 88 -74 0.0975218
w 89 -88 74 0.357887
w 89 -88 -74 0.922123
w 90 89 75 1
w 90 89 -75 0
w 90 -89 75 1
w 90 -89 -75 1
w 91 76 0.799639
w 91 -76 0.72739
w 92 91 77 0
w 92 91 -77 0
w 92 -91 77 0
w 92 -91 -77 1
w 93 92 78 0.416279
w 93 92 -78 0.469179
w 93 -92 78 0.865684
w 93 -92 -78 0.563003
w 94 93 79 1
w 94 93 -79 0
w 94 -93 79 0
w 94 -93 -79 1
w 95 94 80 1
w 95 94 -80 0
w 95 -94 80 1
w 95 -94 -80 0
w 96 95 81 0
w 96 95 -81 1
w 96 -95 81 1
w 96 -95 -81 1
w 97 96 82 0
w 97 96 -82 1
w 97 -96 82 0
w 97 -96 -82 0
w 98 97 83 0
w 98 97 -83 1
w 98 -97 83 0
w 98 -97 -83 0
w 99 98 84 1
w 99 98 -84 0
w 99 -98 84 1
w 99 -98 -84 1
w 100 99 85 1
w 100 99 -85 0
w 100 -99 85 0
w 100 -99 -85 1
w 101 100 86 0
w 101 100 -86 0
w 101 -100 86 0
w 101 -100 -86 1
w 102 101 87 0.193941
w 102 101 -87 0.449414
w 102 -101 87 0.697922
w 102 -101 -87 0.999216
w 103 102 88 0
w 103 102 -88 0
w 103 -102 88 0
w 103 -102 -88 1
w 104 103 89 1
w 104 103 -89 0
w 104 -103 89 0
w 104 -103 -89 0
w 105 104 90 0.429208
w 105 104 -90 0.732344
w 105 -104 90 0.648544
w 105 -104 -90 0.980005
w 106 91 0.894319
w 106 -91 0.330319
w 107 106 92 0.0143724
w 107 106 -92 0.80709
w 107 -106 92 0.1378
w 107 -106 -92 0.992426
w 108 107 93 0.94512
w 108 107 -93 0.186367
w 108 -107 93 0.258534
w 108 -107 -93 0.643042
w 109 108 94 1
w 109 108 -94 1
w 109 -108 94 1
w 109 -108 -94 0
w 110 109 95 1
w 110 109 -95 1
w 110 -109 95 0
w 110 -109 -95 1
w 111 110 96 0
w 111 110 -96 1
w 111 -110 96 0
w 111 -110 -96 0
w 112 111 97 1
w 112 111 -97 1
w 112 -111 97 0
w 112 -111 -97 0
w 113 112 98 1
w 113 112 -98 1
w 113 -112 98 0
w 113 -112 -98 1
w 114 113 99 1
w 114 113 -99 0
w 114 -113 99 1
w 114 -113 -99 0
w 115 114 100 0
w 115 114 -100 1
w 115 -114 100 1
w 115 -114 -100 1
w 116 115 101 1
w 116 115 -101 0
w 116 -115 101 1
w 116 -115 -101 0
w 117 116 102 1
w 117 116 -102 1
w 117 -116 102 0
w 117 -116 -102 0
w 118 117 103 0
w 118 117 -103 1
w 118 -117 103 1
w 118 -117 -103 0
w 119 118 104 0
w 119 118 -104 0
w 119 -118 104 1
w 119 -118 -104 0
w 120 119 105 1
w 120 119 -105 0
w 120 -119 105 0
w 120 -119 -105 1
w 121 106 1
w 121 -106 0
w 122 121 107 0.443978
w 122 121 -107 0.00142935
w 122 -121 107 0.859825
w 122 -121 -107 0.901032
w 123 122 108 0
w 123 122 -108 1
w 123 -122 108 1
w 123 -122 -108 0
w 124 123 109 1
w 124 123 -109 0
w 124 -123 109 0
w 124 -123 -109 1
w 125 124 110 1
w 125 124 -110 0
w 125 -124 110 1
w 125 -124 -110 0
w 126 125 111 1
w 126 125 -111 0
w 126 -125 111 0
w 126 -125 -111 0
w 127 126 112 0
w 127 126 -112 1
w 127 -126 112 1
w 127 -126 -112 1
w 128 127 113 0.238792
w 128 127 -113 0.117889
w 128 -127 113 0.778125
w 128 -127 -113 0.0986162
w 129 128 114 1
w 129 128 -114 1
w 129 -128 114 1
w 129 -128 -114 0
w 130 129 115 0
w 130 129 -115 0
w 130 -129 115 1
w 130 -129 -115 0
w 131 130 116 1
w 131 130 -116 0
w 131 -130 116 1
w 131 -130 -116 0
w 132 131 117 1
w 132 131 -117 1
w 132 -131 117 0
w 132 -131 -117 1
w 133 132 118 1
w 133 132 -118 0
w 133 -132 118 1
w 133 -132 -118 0
w 134 133 119 1
w 134 133 -119 0
w 134 -133 119 0
w 134 -133 -119 1
w 135 134 120 0
w 135 134 -120 1
w 135 -134 120 0
w 135 -134 -120 1
w 136 121 0
w 136 -121 1
w 137 136 122 0.879545
w 137 136 -122 0.149971
w 137 -136 122 0.423505
w 137 -136 -122 0.258151
w 138 137 123 0
w 138 137 -123 0
w 138 -137 123 1
w 138 -137 -123 0
w 139 138 124 0.369999
w 139 138 -124 0.837828
w 139 -138 124 0.444583
w 139 -138 -124 0.786506
w 140 139 125 1
w 140 139 -125 0
w 140 -139 125 0
w 140 -139 -125 0
w 141 140 126 0.0748404
w 141 140 -126 0.821342
w 141 -140 126 0.969606
w 141 -140 -126 0.475994
w 142 141 127 0.574923
w 142 141 -127 0.0351532
w 142 -141 127 0.261846
w 142 -141 -127 0.790299
w 143 142 128 0.141392
w 143 142 -128 0.94027
w 143 -142 128 0.259024
w 143 -142 -128 0.399543
w 144 143 129 1
w 144 143 -129 1
w 144 -143 129 0
w 144 -143 -129 1
w 145 144 130 0
w 145 144 -130 0
w 145 -144 130 1
w 145 -144 -130 0
w 146 145 131 0.170157
w 146 145 -131 0.316731
w 146 -145 131 0.538735
w 146 -145 -131 0.75493
w 147 146 132 1
w 147 146 -132 1
w 147 -146 132 0
w 147 -146 -132 1
w 148 147 133 0
w 148 147 -133 1
w 148 -147 133 1
w 148 -147 -133 0
w 149 148 134 0.901345
w 149 148 -134 0.35506
w 149 -148 134 0.219267
w 149 -148 -134 0.300888
w 150 149 135 0.454521
w 150 149 -135 0.660268
w 150 -149 135 0.723443
w 150 -149 -135 0.959275
w 151 136 1
w 151 -136 0
w 152 151 137 0.658171
w 152 151 -137 0.366513
w 152 -151 137 0.495287
w 152 -151 -137 0.504299
w 153 152 138 1
w 153 152 -138 0
w 153 -152 138 0
w 153 -152 -138 0
w 154 153 139 1
w 154 153 -139 0
w 154 -153 139 1
w 154 -153 -139 1
w 155 154 140 0
w 155 154 -140 0
w 155 -154 140 1
w 155 -154 -140 0
w 156 155 141 1
w 156 155 -141 0
w 156 -155 141 1
w 156 -155 -141 1
w 157 156 142 1
w 157 156 -142 0
w 157 -156 142 1
w 157 -156 -142 1
w 158 157 143 0
w 158 157 -143 1
w 158 -157 143 0
w 158 -157 -143 0
w 159 158 144 1
w 159 158 -144 1
w 159 -158 144 1
w 159 -158 -144 0
w 160 159 145 1
w 160 159 -145 1
w 160 -159 145 0
w 160 -159 -145 0
w 161 160 146 0.0051091
w 161 160 -146 0.70793
w 161 -160 146 0.919248
w 161 -160 -146 0.985939
w 162 161 147 0
w 162 161 -147 0
w 162 -161 147 0
w 162 -161 -147 1
w 163 162 148 0
w 163 162 -148 1
w 163 -162 148 1
w 163 -162 -148 1
w 164 163 149 1
w 164 163 -149 1
w 164 -163 149 0
w 164 -163 -149 1
w 165 164 150 1
w 165 164 -150 1
w 165 -164 150 0
w 165 -164 -150 0
w 166 151 0
w 166 -151 1
w 167 166 152 0
w 167 166 -152 0
w 167 -166 152 1
w 167 -166 -152 1
w 168 167 153 0
w 168 167 -153 1
w 168 -167 153 0
w 168 -167 -153 0
w 169 168 154 0.966714
w 169 168 -154 0.145771
w 169 -168 154 0.0629973
w 169 -168 -154 0.229836
w 170 169 155 0.621621
w 170 169 -155 0.721696
w 170 -169 155 0.875219
w 170 -169 -155 0.478479
w 171 170 156 0
w 171 170 -156 1
w 171 -170 156 1
w 171 -170 -156 1
w 172 171 157 1
w 172 171 -157 1
w 172 -171 157 0
w 172 -171 -157 1
w 173 172 158 1
w 173 172 -158 0
w 173 -172 158 0
w 173 -172 -158 0
w 174 173 159 1
w 174 173 -159 0
w 174 -173 159 0
w 174 -173 -159 1
w 175 174 160 0
w 175 174 -160 1
w 175 -174 160 0
w 175 -174 -160 0
w 176 175 161 0.191219
w 176 175 -161 0.374114
w 176 -175 161 0.520162
w 176 -175 -161 0.0664388
w 177 176 162 0.620625
w 177 176 -162 0.719921
w 177 -176 162 0.981453
w 177 -176 -162 0.49106
w 178 177 163 1
w 178 177 -163 0
w 178 -177 163 1
w 178 -177 -163 1
w 179 178 164 0.0628829
w 179 178 -164 0.835181
w 179 -178 164 0.437222
w 179 -178 -164 0.227275
w 180 179 165 0
w 180 179 -165 0
w 180 -179 165 1
w 180 -179 -165 1
w 181 166 0
w 181 -166 1
w 182 181 167 1
w 182 181 -167 0
w 182 -181 167 1
w 182 -181 -167 0
w 183 182 168 0.316062
w 183 182 -168 0.62634
w 183 -182 168 0.913457
w 183 -182 -168 0.168656
w 184 183 169 0
w 184 183 -169 1
w 184 -183 169 1
w 184 -183 -169 0
w 185 184 170 1
w 185 184 -170 0
w 185 -184 170 1
w 185 -184 -170 0
w 186 185 171 0.855973
w 186 185 -171 0.676377
w 186 -185 171 0.0678106
w 186 -185 -171 0.219503
w 187 186 172 0
w 187 186 -172 0
w 187 -186 172 1
w 187 -186 -172 0
w 188 187 173 1
w 188 187 -173 1
w 188 -187 173 0
w 188 -187 -173 0
w 189 188 174 1
w 189 188 -174 0
w 189 -188 174 0
w 189 -188 -174 1
w 190 189 175 0
w 190 189 -175 1
w 190 -189 175 1
w 190 -189 -175 1
w 191 190 176 1
w 191 190 -176 0
w 191 -190 176 0
w 191 -190 -176 1
w 192 191 177 0
w 192 191 -177 1
w 192 -191 177 1
w 192 -191 -177 1
w 193 192 178 1
w 193 192 -178 0
w 193 -192 178 1
w 193 -192 -178 0
w 194 193 179 0
w 194 193 -179 1
w 194 -193 179 1
w 194 -193 -179 0
w 195 194 180 1
w 195 194 -180 1
w 195 -194 180 0
w 195 -194 -180 0
w 196 181 0.350536
w 196 -181 0.192062
w 197 196 182 0
w 197 196 -182 1
w 197 -196 182 0
w 197 -196 -182 0
w 198 197 183 1
w 198 197 -183 1
w 198 -197 183 0
w 198 -197 -183 0
w 199 198 184 1
w 199 198 -184 0
w 199 -198 184 0
w 199 -198 -184 1
w 200 199 185 1
w 200 199 -185 1
w 200 -199 185 0
w 200 -199 -185 1
w 201 200 186 0.778822
w 201 200 -186 0.112011
w 201 -200 186 0.0533573
w 201 -200 -186 0.329613
w 202 201 187 1
w 202 201 -187 0
w 202 -201 187 0
w 202 -201 -187 0
w 203 202 188 0
w 203 202 -188 1
w 203 -202 188 1
w 203 -202 -188 1
w 204 203 189 1
w 204 203 -189 0
w 204 -203 189 1
w 204 -203 -189 1
w 205 204 190 0.0023495
w 205 204 -190 0.0773704
w 205 -204 190 0.771892
w 205 -204 -190 0.618404
w 206 205 191 0
w 206 205 -191 1
w 206 -205 191 1
w 206 -205 -191 1
w 207 206 192 0
w 207 206 -192 0
w 207 -206 192 1
w 207 -206 -192 1
w 208 207 193 1
w 208 207 -193 1
w 208 -207 193 1
w 208 -207 -193 0
w 209 208 194 0
w 209 208 -194 0
w 209 -208 194 1
w 209 -208 -194 1
w 210 209 195 0
w 210 209 -195 0
w 210 -209 195 0
w 210 -209 -195 1
w 211 196 1
w 211 -196 0
w 212 211 197 0.468449
w 212 211 -197 0.853169
w 212 -211 197 0.422647
w 212 -211 -197 0.647509
w 213 212 198 1
w 213 212 -198 0
w 213 -212 198 1
w 213 -212 -198 1
w 214 213 199 1
w 214 213 -199 0
w 214 -213 199 1
w 214 -213 -199 0
w 215 214 200 1
w 215 214 -200 1
w 215 -214 200 0
w 215 -214 -200 0
w 216 215 201 0
w 216 215 -201 1
w 216 -215 201 1
w 216 -215 -201 0
w 217 216 202 1
w 217 216 -202 0
w 217 -216 202 1
w 217 -216 -202 1
w 218 217 203 1
w 218 217 -203 1
w 218 -217 203 1
w 218 -217 -203 0
w 219 218 204 1
w 219 218 -204 1
w 219 -218 204 0
w 219 -218 -204 0
w 220 219 205 1
w 220 219 -205 1
w 220 -219 205 1
w 220 -219 -205 0
w 221 220 206 0.604099
w 221 220 -206 0.301724
w 221 -220 206 0.649292
w 221 -220 -206 0.527377
w 222 221 207 1
w 222 221 -207 1
w 222 -221 207 1
w 222 -221 -207 0
w 223 222 208 1
w 223 222 -208 1
w 223 -222 208 1
w 223 -222 -208 0
w 224 223 209 0.994833
w 224 223 -209 0.738154
w 224 -223 209 0.421302
w 224 -223 -209 0.0757946
w 225 224 210 1
w 225 224 -210 0
w 225 -224 210 1
w 225 -224 -210 1